% File represents an instance of a Composite Structure problem to be solved by a CP framework
% Created on 2025-03-26 10:41:56.615
T = 58;
n = 36;
m = 60;
edges = [(2, 1),
(8, 7),
(14, 13),
(20, 19),
(25, 26),
(32, 31),
(3, 2),
(8, 9),
(14, 15),
(21, 20),
(27, 26),
(32, 33),
(3, 4),
(10, 9),
(16, 15),
(21, 22),
(27, 28),
(33, 34),
(5, 4),
(10, 11),
(17, 16),
(23, 22),
(28, 29),
(35, 34),
(5, 6),
(11, 12),
(17, 18),
(23, 24),
(30, 29),
(36, 35),
(7, 1),
(7, 13),
(13, 19),
(25, 19),
(25, 31),
(8, 2),
(8, 14),
(14, 20),
(20, 26),
(32, 26),
(3, 9),
(9, 15),
(21, 15),
(21, 27),
(27, 33),
(10, 4),
(10, 16),
(16, 22),
(22, 28),
(28, 34),
(5, 11),
(17, 11),
(17, 23),
(23, 29),
(35, 29),
(6, 12),
(18, 12),
(18, 24),
(24, 30),
(36, 30)];
counts = [|16, 18, 16, 2,
|18, 18, 18, 2,
|18, 18, 18, 4,
|18, 14, 18, 4,
|18, 14, 18, 6,
|18, 12, 18, 6,
|16, 18, 16, 4,
|18, 18, 18, 4,
|16, 18, 16, 4,
|18, 18, 18, 4,
|18, 14, 18, 4,
|18, 12, 18, 4,
|16, 14, 16, 4,
|18, 16, 18, 4,
|16, 14, 16, 4,
|16, 18, 16, 4,
|18, 18, 18, 4,
|18, 16, 18, 4,
|16, 12, 16, 4,
|18, 14, 18, 4,
|18, 16, 18, 4,
|16, 16, 16, 4,
|16, 18, 16, 4,
|16, 16, 16, 4,
|18, 14, 18, 4,
|18, 10, 18, 4,
|18, 14, 18, 4,
|16, 14, 16, 4,
|16, 14, 16, 2,
|16, 14, 16, 4,
|18, 10, 18, 2,
|18, 12, 18, 6,
|18, 12, 18, 4,
|16, 12, 16, 2,
|16, 16, 16, 2,
|16, 16, 16, 4|];
